33D32945 STP File, STP Format Version 1.0

SECTION Graph 
Nodes 126
Arcs 131
A 4 1 1 
A 1 2 1 
A 1 3 1 
A 2 3 1 
A 2 4 1 
A 2 5 1 
A 2 6 1 
A 2 7 1 
A 6 8 1 
A 7 9 1 
A 7 10 1 
A 7 11 1 
A 7 12 1 
A 7 13 1 
A 7 14 1 
A 7 15 1 
A 7 16 1 
A 7 17 1 
A 3 18 1 
A 3 19 1 
A 3 20 1 
A 3 21 1 
A 3 22 1 
A 3 23 1 
A 3 24 1 
A 3 25 1 
A 3 26 1 
A 3 27 1 
A 3 28 1 
A 3 29 1 
A 3 30 1 
A 3 31 1 
A 3 32 1 
A 3 33 1 
A 3 34 1 
A 3 35 1 
A 3 36 1 
A 3 37 1 
A 3 38 1 
A 3 39 1 
A 3 40 1 
A 3 41 1 
A 3 42 1 
A 3 43 1 
A 3 44 1 
A 3 45 1 
A 3 46 1 
A 3 47 1 
A 3 48 1 
A 3 49 1 
A 3 50 1 
A 3 51 1 
A 3 52 1 
A 3 53 1 
A 3 54 1 
A 5 55 1 
A 5 56 1 
A 5 57 1 
A 5 58 1 
A 5 59 1 
A 5 60 1 
A 5 61 1 
A 5 62 1 
A 5 63 1 
A 5 64 1 
A 5 65 1 
A 5 66 1 
A 5 67 1 
A 5 68 1 
A 5 69 1 
A 5 70 1 
A 5 71 1 
A 5 72 1 
A 5 73 1 
A 5 74 1 
A 5 75 1 
A 5 76 1 
A 5 77 1 
A 5 78 1 
A 5 79 1 
A 5 80 1 
A 5 81 1 
A 5 82 1 
A 5 83 1 
A 5 84 1 
A 5 85 1 
A 5 86 1 
A 5 87 1 
A 5 88 1 
A 5 89 1 
A 5 90 1 
A 5 91 1 
A 5 92 1 
A 5 93 1 
A 20 94 1 
A 19 95 1 
A 21 96 1 
A 30 96 1 
A 37 96 1 
A 46 96 1 
A 22 97 1 
A 18 98 1 
A 26 99 1 
A 25 100 1 
A 23 101 1 
A 24 102 1 
A 27 103 1 
A 33 104 1 
A 31 105 1 
A 39 106 1 
A 28 106 1 
A 36 107 1 
A 38 108 1 
A 35 109 1 
A 29 110 1 
A 40 111 1 
A 45 112 1 
A 42 113 1 
A 43 114 1 
A 44 115 1 
A 47 116 1 
A 51 117 1 
A 49 118 1 
A 41 119 1 
A 32 120 1 
A 50 121 1 
A 54 122 1 
A 48 123 1 
A 34 124 1 
A 53 125 1 
A 52 126 1 
END

SECTION Terminals
Terminals 7
Root 1
T 1
T 21
T 30
T 39
T 28
T 37
T 46
END

EOF